LAMMPS (17 Nov 2016)
dimension			2
units			lj
atom_style			molecular
boundary p p p
atom_modify			sort 0 1

read_data			p_1_data.data
  orthogonal box = (-200 -50 -50) to (200 50 50)
  1 by 1 by 1 MPI processor grid
  reading atoms ...
  125 atoms
  scanning bonds ...
  1 = max bonds/atom
  scanning angles ...
  1 = max angles/atom
  reading bonds ...
  119 bonds
  reading angles ...
  118 angles
  2 = max # of 1-2 neighbors
  2 = max # of 1-3 neighbors
  4 = max # of 1-4 neighbors
  6 = max # of special neighbors
neigh_modify			every 1 delay 1
bond_style			harmonic
bond_coeff			1 30 1.3
angle_style			harmonic
angle_coeff			1 30 180
pair_style			lj/cut 2.5
pair_coeff			* * 0 0 0
pair_coeff			1 4 6.5 1.5 3.75
pair_coeff			1 5 8.75 1.5 3.75
pair_coeff			1 6 2.75 1.5 3.75
pair_coeff			1 7 8.625 1.5 3.75
pair_coeff			1 3 100 4.5 5.0
pair_coeff			1 1 100 1.0 1.12246
pair_coeff			1 2 100 1.0 1.12246
pair_modify			shift yes
dump			id all xyz 100 p_1_out.xyz
group			move type 1
118 atoms in group move
group			anchor type 2
2 atoms in group anchor
group			protein type 3 4 5 6 7
5 atoms in group protein
velocity move create 1.0 1
velocity protein set 0 -15 0
fix			0 all enforce2d
fix			1 move nph x 0.0 0.0 1.0 y 0.0 0.0 1.0 couple none
fix			2 protein rigid/nve molecule
1 rigid bodies with 5 atoms
fix			3 all langevin 1 1 1 1000


thermo			300
timestep			0.005
run			60000
Neighbor list info ...
  1 neighbor list requests
  update every 1 steps, delay 1 steps, check yes
  max neighbors/atom: 2000, page size: 100000
  master list distance cutoff = 5.3
  ghost atom cutoff = 5.3
  binsize = 2.65 -> bins = 151 38 38
Memory usage per processor = 1.13833 Mbytes
Step Temp E_pair E_mol TotEng Press Volume 
       0    3.8091286            0    3.2213849    6.8933849 0.0094445396        40000 
     300    1.0698777 -0.053826777    3.0923567    4.0698919 -0.00033385015    48372.998 
     600    1.0964187  -0.17254544     3.249918    4.1343202 0.00083998973     50228.57 
     900    1.0501399  -0.18396166    3.1124382    3.9408114 0.0016785042    48056.944 
    1200    1.0259205   -0.1606322    3.0433066    3.8716618 -0.00011409452    43262.958 
    1500   0.90937498  -0.14600107    3.0654841    3.7961205 -0.0016537596    42558.721 
    1800    1.0174349  -0.16424245    3.0208987    3.8374634 0.0022554604    44074.417 
    2100    1.0154874  -0.12567474    3.0861486    3.9394037 0.0011444365    48806.348 
    2400   0.99709286  -0.14479936    3.0799433    3.8963414 0.0043054775    54652.134 
    2700    1.0631388  -0.17321799    3.2231419    4.0747897 0.00030092894    55038.933 
    3000   0.86140177  -0.14356687    3.3779633    4.0647877 -0.0056388016    51241.475 
    3300    1.0241889  -0.15033202    3.2060329    4.0430191 0.00021374629    48566.426 
    3600   0.91260846  -0.11526874    3.2441454    4.0086312 -0.00097909939    48313.919 
    3900    1.0184571  -0.14284456    3.2157008    4.0546489 0.00015055653     47103.56 
    4200    1.0900527   -0.1107372    2.9751037    3.9151773 -0.0020937128    47693.642 
    4500    1.0663139 -0.088769009     3.069725    4.0088826 -0.0026827727    46500.719 
    4800    1.0213152   -0.1268216    3.1674992    4.0252255 -0.00087713589    45858.898 
    5100   0.94667104  -0.11673054    3.0189505    3.8148108 0.00095848116    45556.482 
    5400    1.1209532  -0.11663971    3.1394126    4.1033718 0.00053087483    46061.111 
    5700    1.0335838  -0.13653595    3.1880846    4.0479234 0.0030951263    46332.743 
    6000   0.89520737  -0.13053087    3.4630512    4.1955003 -0.00087549346     48804.73 
    6300    1.0855293  -0.14941615    3.1620069    4.0590409 0.00062204419    54878.445 
    6600   0.91068975  -0.15819063    3.2616956    3.9814099 0.0053827683    52258.224 
    6900    1.0187261  -0.16046272    3.2906808      4.11227 0.00067552522    49654.748 
    7200    1.0921675  -0.15215282    3.3243357    4.2250324 -0.00035392998    44794.116 
    7500     1.032623  -0.17065674    3.3681546    4.1929464 -0.0014149578    41150.263 
    7800    1.0328544  -0.14129144    3.3101844    4.1645646 -0.0031472977    37251.825 
    8100    1.0963926   -0.1606652    3.2613118     4.157569 0.00069966998    35399.942 
    8400    1.0732283  -0.12639081    3.3960744    4.3042757 0.0071949927    30449.172 
    8700    1.0178576  -0.13883064    3.4627688    4.3051529 -0.0012392057    30484.557 
    9000    1.0311242  -0.14374376    3.2643168    4.1145768 0.0034328514    33045.019 
    9300    1.0403204   -0.1291743    3.4967024     4.370397 0.0024201416    34776.494 
    9600   0.89465244  -0.12282837    3.6509296    4.3905461 -0.0019515787    35978.394 
    9900    1.0020234  -0.12257085    3.6210783     4.464458 0.0034554205    34957.702 
   10200   0.95320603   -0.1181269    3.4238656    4.2246294 -0.0029729442    36334.969 
   10500    1.0605074  -0.11558979    3.4747893    4.3815287 -0.0029543906    35570.202 
   10800   0.78225006  -0.10740444    3.4474879    4.0941725 0.0017266978    35048.531 
   11100     1.017557  -0.12295371    3.4508268     4.308798 0.0015781651    35463.212 
   11400    1.0154092  -0.13965893    3.6255786    4.4647742 -0.0002755123    37894.045 
   11700    1.0703008  -0.12586412    3.5780117    4.4839176 0.00045407572    42315.938 
   12000   0.98407331  -0.14740546    3.6079747     4.409216 -0.0026779118    49227.701 
   12300    1.2558357  -0.13935078    3.6561282    4.7274031 0.00070655833     52674.79 
   12600    1.1562521  -0.13494914    3.6279826    4.6076605 0.0015805775    48281.303 
   12900    1.0607644  -0.12299842    3.5149107    4.4144892 -0.00012001415    43577.763 
   13200   0.94019925  -0.14786302    3.4614341    4.2199232 -0.00078978175    38924.069 
   13500   0.91846725  -0.14555022    3.4830375    4.2228897  0.001644512    34683.445 
   13800    1.0887726  -0.15546681    3.6001085    4.4942185 8.7365618e-05    34338.444 
   14100    1.0117872  -0.13731329     3.759374    4.5974236 0.0043431152    39482.677 
   14400   0.93178892  -0.15845766    3.7991282    4.5389151 -0.0022821088    45414.397 
   14700   0.91207939  -0.14116296     3.729369    4.4674505 -0.0019596106     47803.19 
   15000    1.1005618  -0.15030808    3.5633707    4.4740042 -0.00026749013    47856.986 
   15300   0.95098382  -0.13678876    3.6361002    4.4160598 -0.00094032223    52383.454 
   15600    1.1336212  -0.15394141    3.8559338    4.7948033 -0.0018709899        61417 
   15900   0.96944444  -0.13228064    3.7077288    4.5099926 -0.0016469654    63278.858 
   16200    1.0664015  -0.15931956    3.7105529    4.5792445 2.8687735e-05     63052.63 
   16500   0.92799485  -0.17160301    3.7506253    4.4736093   0.00272744    66585.118 
   16800    1.0052198  -0.15031341    3.9197885     4.738507 -0.00063169873    78131.402 
   17100   0.85860744  -0.10989401    3.8894309    4.6072344 0.00011041837    79250.518 
   17400    1.0410855  -0.14979354    3.7622451     4.616058 -0.0017885068    80335.164 
   17700   0.98926986   -0.1609333    3.6754421     4.468165 -0.00030233413    80769.604 
   18000   0.96394449  -0.16128017    3.7360629    4.5040252 0.00062547069    91230.684 
   18300    1.0273288  -0.16480294    3.7137266    4.5392686 0.00091605107    92628.644 
   18600   0.84388306  -0.20066394    3.7838405    4.3966799 0.00087006014    90966.196 
   18900   0.95330429  -0.18351653    3.8174972     4.552966 0.00039351719    101363.61 
   19200    1.0947324  -0.17048535    3.7103686    4.5952053 7.7278368e-05    111783.94 
   19500    1.0120545  -0.18145962    3.8163692    4.6105301 -0.00085760729    112095.64 
   19800   0.90409381   -0.1650516    3.8450941     4.551589 -0.0013785871    106797.74 
   20100   0.95620296  -0.17316702    3.9389292    4.6875418 0.0010549152    93252.123 
   20400    1.1555849  -0.14345295    3.7774403    4.7479711 0.0002930529    88965.059 
   20700   0.97059648  -0.12788762    3.8650984    4.6728658 -0.00073079557    88811.515 
   21000    1.0392285  -0.17051212    3.8586793    4.6899835 -0.0012647667    103941.64 
   21300    1.0207499  -0.16812833    3.8737001    4.6895747 -0.00036400136    107948.94 
   21600   0.94746216  -0.18081949    3.7645817    4.4971157 4.5268627e-05     107699.3 
   21900   0.99712569  -0.18025391    3.8461824    4.6271577 -0.00033919039    109457.63 
   22200   0.83329453  -0.15119387    3.6251491    4.2772511 0.00096035286    100385.21 
   22500   0.89421837  -0.15593642    3.7635204    4.4696105 -0.00038238498    91736.402 
   22800    1.1013194  -0.11438879    3.9584122    4.9056953  0.002374769    84447.629 
   23100    1.1578694  -0.12922945    3.8737011    4.8606577 6.663217e-05    83902.919 
   23400    1.0409566  -0.11382959     3.911403    4.8010556 0.00076691477    82033.724 
   23700    1.0612984  -0.12405489    3.8611251    4.7601619 0.00047137329    78802.224 
   24000   0.90975869  -0.15878832    4.0310093    4.7492284 -0.0001356212    63604.835 
   24300    1.2304161  -0.14964319    3.8488862    4.8853641 5.2306344e-05    62168.254 
   24600    1.0605757  -0.14202273    4.0413181    4.9216904 -0.0016556051    67577.067 
   24900   0.88111381   -0.1747963    3.9346383    4.6092358 -7.8906433e-05    78211.862 
   25200    1.1058959  -0.15610652    3.9072803    4.8172574 0.0015017171    80803.748 
   25500   0.97773264  -0.10317453    3.9712223     4.810582 -0.00024630032    81905.535 
   25800   0.99659716  -0.17554061    4.2231633    5.0083424 -0.0020782651    79138.607 
   26100    1.0580927  -0.15590006    4.1020897     4.966191 0.00036243188    74840.601 
   26400    1.1268312  -0.17245187    4.3187293    5.2325427 0.0024305908    71487.867 
   26700    1.0024917  -0.10857458    4.0257061    4.8835334 -0.00074843836    78901.579 
   27000   0.94393625  -0.12546593    4.0512855    4.8357741 0.00046774046    81779.272 
   27300   0.98306675  -0.13515142     4.136927    4.9494519 9.7633393e-05    83742.477 
   27600   0.91920479   -0.1512336    4.2198686    4.9547485 -0.00017952203    84304.814 
   27900   0.92132997   -0.1424507      4.14109    4.8868014 -0.0016166098    84303.715 
   28200    1.0252429  -0.12589362    4.2596512    5.1220918 -0.0026705094    85644.635 
   28500   0.99270157  -0.15146798    4.2425839    5.0480802 -0.00093210064    86051.018 
   28800   0.89402236 -0.098513285    4.1354471    4.8987713 0.00076718942    85143.542 
   29100    1.2433035  -0.10816442    4.2008211    5.2912013 0.0014187351    84142.083 
   29400   0.88964585  -0.12035309    4.3203477    5.0576132 -0.0026405938    82427.032 
   29700   0.95224918  -0.11451837    4.2633676    5.0668174 -0.00082861085     78206.49 
   30000    1.0948547  -0.11627482    4.2735033    5.2126685 0.0015033935    77599.699 
   30300   0.94676835  -0.12815725    4.3805826      5.16511 0.0014859073    86673.388 
   30600    1.0819808  -0.11726456    4.1801024    5.1058673 -0.00091658265    96181.928 
   30900   0.85731042  -0.12211832    4.1453394    4.8496683 -0.00095516977    99035.799 
   31200   0.95666669  -0.10171587    4.1098059    4.9303167 0.0011495742    88707.087 
   31500   0.89536389  -0.10690477    4.2451744    5.0014005 0.0008046958    84350.862 
   31800     1.012308  -0.16285584    4.2391214    5.0521305 -0.00077193071    85861.902 
   32100     1.088724  -0.13632596    4.2742587    5.1874627 0.00029953341     89651.26 
   32400   0.83535626   -0.1536024    4.1647443    4.8164253 -0.00041406161    91199.515 
   32700   0.97014915   -0.1611606    4.3282799    5.1023431 0.00091614599    98604.764 
   33000   0.99011366  -0.14045509    4.2868577    5.1008722 -1.1507742e-05    115873.01 
   33300   0.87351185  -0.14365949     4.395252    5.0936579 -0.0007957107    113294.96 
   33600   0.96439315  -0.14358389    4.3802391    5.1663302 0.0001195661    113188.34 
   33900    1.0221934  -0.15197902    4.3636182    5.1970336 0.00025511264    132641.58 
   34200   0.98565617  -0.14959017    4.4818438    5.2824262 -0.00022158294    138665.35 
   34500    1.1486688  -0.10994483     4.366415    5.3637869 -0.00030879136     127306.6 
   34800    1.1231026   -0.1181746    4.4828701    5.4473664 -0.00087722382    112198.93 
   35100   0.89784068  -0.12761236    4.6233998    5.3613058 0.00061929813    103104.54 
   35400    1.0222132  -0.15880551    4.4241925    5.2508005  0.001250532    88222.134 
   35700     1.088341  -0.11336975    4.3879183    5.3237093 -0.00070486469    78375.369 
   36000   0.94273458  -0.16876673    4.4216561    5.1616855 -0.00098285818    76635.127 
   36300    1.0699721  -0.14955608    4.3984707    5.2803676 -8.1868167e-05    82451.708 
   36600    1.0822826  -0.17049048    4.4485723    5.3214022 0.00081632326    95820.166 
   36900   0.99695778  -0.14935216    4.3357074    5.1474226 0.00027116027    99395.471 
   37200   0.97480314  -0.17259165    4.3980012    5.1651198 -0.0012134297    101616.56 
   37500   0.93420785  -0.15987188    4.3102539    5.0509584 -0.00015652806    107737.81 
   37800   0.90391717  -0.16234401    4.4322727    5.1413049 0.00017897875    108110.88 
   38100    1.0392464  -0.16436935    4.3628417    5.2003059 0.00052803728    104971.44 
   38400   0.90241972  -0.15081423    4.3804293    5.0995477 -0.00036214182    97397.335 
   38700   0.98197698  -0.16640828    4.3707204    5.1509379 0.00037384953    80685.079 
   39000    0.9862844  -0.15011594    4.4133781    5.2140403 -0.00048006967     80851.88 
   39300    1.0585349  -0.16078509    4.2674219    5.1270645 0.0009981393    87531.222 
   39600    0.9729624   -0.1560076    4.4662772    5.2482054 -0.00070872763    103777.58 
   39900    1.0134233  -0.12896368    4.3763576     5.224334 -0.00074570486    112805.33 
   40200   0.98135756  -0.10786365    4.3179851    5.1561502 -0.00082862625    116926.72 
   40500    1.1450904  -0.11984991    4.4112056    5.3952228 0.00014565059    120389.99 
   40800    1.0897133  -0.14401966    4.4490375    5.3555015  0.001254608    130088.13 
   41100    1.0666616  -0.14106047    4.5101303    5.3973317 0.00093415744    134437.23 
   41400   0.99204881  -0.13428027    4.3956555    5.2177103 0.0010981905    130316.19 
   41700    1.0479131  -0.14523558    4.4970003    5.3619529 0.00026652645    128000.33 
   42000    1.0053524  -0.12507674    4.5969139    5.4409969 -0.00036612333    122606.34 
   42300    1.1477799  -0.10402542    4.4403053    5.4427396 0.00022757273    118878.02 
   42600    1.0040064   -0.1061541    4.5671172    5.4288254 0.00054163249    134113.81 
   42900   0.93636868  -0.12951673    4.5699654     5.343108 -0.0015605571    140404.83 
   43200    1.0203737   -0.1461618    4.6799549    5.5174333 -0.00019839125    127897.27 
   43500    1.0720309  -0.14271749    4.5781972    5.4689176 0.0010936033    124466.94 
   43800   0.99543144  -0.15634732    4.5963861    5.3996347  0.001316263    127818.01 
   44100    1.0788171  -0.14100685    4.6825651    5.5815379 0.00062112383    131531.58 
   44400   0.91705115   -0.1334765    4.6204798    5.3710407 0.00034458683    138522.14 
   44700   0.85519282  -0.15170584    4.7369844    5.4096844 -0.00071314818     126229.2 
   45000    1.2580031  -0.12390519    4.6342868    5.7230966 0.0012327998    112714.13 
   45300    0.9423871  -0.13041482    4.7485175    5.5265639 0.0015788807    109763.18 
   45600   0.85955126    -0.152132    4.6587279    5.3352033 -0.0013201058       119884 
   45900    1.0086147  -0.13593947    4.6864889     5.522854 0.00092415058    118224.53 
   46200   0.83956668  -0.13492384     4.741641    5.4160594 -6.112401e-08    112230.66 
   46500    1.0350161  -0.10623371    4.8515346    5.7430564 0.0017122468    122901.15 
   46800   0.87653801  -0.12583872    4.9744089    5.6935528 3.7503139e-05    132357.85 
   47100   0.95355933   -0.1149144    4.8361966    5.6405133 -0.00062576796    137024.73 
   47400   0.94108487  -0.15531616    4.8343485    5.5862381 -0.00041352196    137360.05 
   47700   0.88312977  -0.13623135    4.9942239    5.7093297 0.00092475055    136180.63 
   48000    1.0766789  -0.10629199    4.8923079    5.8239343 0.00028867316    135904.61 
   48300   0.98060647  -0.13358623    4.8498291    5.6615475 0.00018268353    139656.47 
   48600   0.83128575  -0.13764312    4.8850539    5.5487702 -0.00068210188     136600.1 
   48900   0.90887508  -0.14133278    4.7462571    5.4810799 0.00046988353    138677.73 
   49200   0.75744161  -0.13631319    4.9636062    5.5574667 0.0011361557    142270.42 
   49500   0.94006822  -0.15160908    4.8549473     5.609564 -5.2768425e-05    134093.95 
   49800    1.1229779  -0.14796046    4.7940024    5.7285927 0.00038951211    138776.09 
   50100   0.88825137    -0.117769    4.9375247      5.67603 -0.00090861551    151553.78 
   50400   0.98167567  -0.14807321    4.7615413    5.5598034 0.00052004387    146051.67 
   50700   0.99509637  -0.14913363    4.7645258    5.5746651 0.00077252369    134311.82 
   51000   0.91872486  -0.14735207    4.6728265    5.4111252 -0.00028490369     137774.9 
   51300   0.96019293  -0.14794803    4.7797987    5.5574767 -0.00011028676    147512.44 
   51600    1.1116757  -0.12647693    4.6895292    5.6347077 -0.00023076684    162221.45 
   51900   0.99056043  -0.14725964    4.8871201    5.6947607 0.00089897941    141638.18 
   52200    1.1120189  -0.14800622    4.7687797    5.6927597 0.00051840739    133130.85 
   52500   0.96849304  -0.15354377    4.9524961    5.7325796 0.00050297487    138435.89 
   52800    1.2099915  -0.12559242    5.1006483    6.1414877 -0.00043846306    132817.85 
   53100    1.0313374  -0.16083992     5.026338    5.8597073 -0.0016170064    117975.66 
   53400    1.0150893  -0.14566886    4.7546873    5.5875645 0.00086980381    117601.11 
   53700   0.99567854  -0.16633711    4.6544659    5.4479629 0.00050232798    126086.77 
   54000    1.0548636  -0.15942319    4.7311554    5.5886207 -0.00016523562    137919.85 
   54300    1.0019707  -0.15819265    4.6876408    5.4953479 9.5476527e-05    134686.51 
   54600   0.97464797  -0.15917284    4.8641078    5.6444956 0.00046310555    127039.35 
   54900    1.2448921  -0.14857298    4.7599018    5.8114048  0.001108191    107247.23 
   55200    0.9332952  -0.12091954    4.9141518    5.6929289 -4.9273227e-05    107647.39 
   55500    1.1095255  -0.11401124    4.7889071    5.7444784 6.9216751e-05    130812.67 
   55800    1.0001233  -0.13404528    4.8673978    5.6974713 0.00037882484    129969.64 
   56100   0.87449907  -0.13814513    4.8010957    5.5059677 -0.00011301224    126057.62 
   56400     1.015137  -0.10207221    4.7670526    5.6435725 -0.00033220172    127198.53 
   56700    1.1317128  -0.11822007    4.7787007    5.7514518 -0.00017857074    128200.79 
   57000    1.0784994  -0.13745438     4.755344    5.6575631 -0.00079171007    123790.08 
   57300   0.97433358  -0.14993392    4.8650875    5.6544112 0.0011210141    108871.67 
   57600    1.0313883  -0.15788935     4.916305     5.752674 0.00095950829    113963.93 
   57900    1.0608301  -0.13776297    4.8455551    5.7304323 -0.0002843141    123600.53 
   58200    0.9547027  -0.14914401    4.8707979    5.6419873 -0.00038171328    125587.53 
   58500   0.85032119  -0.13593589    4.8398423     5.523616 -0.00024781436    136529.47 
   58800    1.0164599  -0.14884483    4.8867615     5.717784 -0.00028851567     148447.9 
   59100   0.85286056  -0.14819369    4.7991407    5.4731046 -0.00024367099    127766.69 
   59400   0.89533175  -0.13270362    4.7246288     5.455025 -0.00037007681    121929.48 
   59700    1.0732826  -0.16295626    4.7868145    5.6585026 0.00093516996     126962.6 
   60000    1.0223222  -0.14572088    4.9232953     5.763093 -0.00038240212    130954.85 
Loop time of 2.10229 on 1 procs for 60000 steps with 125 atoms

Performance: 12329429.807 tau/day, 28540.347 timesteps/s
98.9% CPU use with 1 MPI tasks x no OpenMP threads

MPI task timing breakdown:
Section |  min time  |  avg time  |  max time  |%varavg| %total
---------------------------------------------------------------
Pair    | 0.068056   | 0.068056   | 0.068056   |   0.0 |  3.24
Bond    | 0.84629    | 0.84629    | 0.84629    |   0.0 | 40.26
Neigh   | 0.31217    | 0.31217    | 0.31217    |   0.0 | 14.85
Comm    | 0.025088   | 0.025088   | 0.025088   |   0.0 |  1.19
Output  | 0.068037   | 0.068037   | 0.068037   |   0.0 |  3.24
Modify  | 0.72106    | 0.72106    | 0.72106    |   0.0 | 34.30
Other   |            | 0.06158    |            |       |  2.93

Nlocal:    125 ave 125 max 125 min
Histogram: 1 0 0 0 0 0 0 0 0 0
Nghost:    0 ave 0 max 0 min
Histogram: 1 0 0 0 0 0 0 0 0 0
Neighs:    14 ave 14 max 14 min
Histogram: 1 0 0 0 0 0 0 0 0 0

Total # of neighbors = 14
Ave neighs/atom = 0.112
Ave special neighs/atom = 5.664
Neighbor list builds = 12225
Dangerous builds = 3227
Total wall time: 0:00:02
